 SC112 file generated by VASPKIT        
   1.00000000000000     
     4.3799999999999999    0.0000000000000000    0.0000000000000000
    -2.1899999999999999    3.7931912685758400    0.0000000000000000
     0.0000000000000000    0.0000000000000000   54.2800000000000011
   Mn   Te   Bi
     3    12     6
Selective dynamics
Direct
  0.6666666666666643  0.3333333333333357  0.2500000000000000   F   F   F
  0.3333333333333357  0.6666666666666643  0.5000000000000000   F   F   F
  0.0000000000000000  0.0000000000000000  0.7500000000000000   F   F   F
  0.6666666666666643  0.3333333333333357  0.3485416503124341   F   F   F
  0.3333333333333357  0.6666666666666643  0.5985416503124341   F   F   F
  0.0000000000000000  0.0000000000000000  0.8485416503124341   F   F   F
  0.0000000000000000  0.0000000000000000  0.6514583496875659   F   F   F
  0.6666666666666643  0.3333333333333357  0.1514583496875659   F   F   F
  0.3333333333333357  0.6666666666666643  0.4014583496875659   F   F   F
  0.0000000000000000  0.0000000000000000  0.2216376343687401   F   F   F
  0.6666666666666643  0.3333333333333357  0.4716376343687401   F   F   F
  0.3333333333333357  0.6666666666666643  0.7216376343687401   F   F   F
  0.0000000000000000  0.0000000000000000  0.5283623656312599   F   F   F
  0.6666666666666643  0.3333333333333357  0.7783623656312599   F   F   F
  0.3333333333333357  0.6666666666666643  0.2783623656312599   F   F   F
  0.0000000000000000  0.0000000000000000  0.3168879621965957   F   F   F
  0.6666666666666643  0.3333333333333357  0.5668879621965957   F   F   F
  0.3333333333333357  0.6666666666666643  0.8168879621965957   F   F   F
  0.0000000000000000  0.0000000000000000  0.4331120378034043   F   F   F
  0.6666666666666643  0.3333333333333357  0.6831120378034043   F   F   F
  0.3333333333333357  0.6666666666666643  0.1831120378034043   F   F   F
 
  0.00000000E+00  0.00000000E+00  0.00000000E+00
  0.00000000E+00  0.00000000E+00  0.00000000E+00
  0.00000000E+00  0.00000000E+00  0.00000000E+00
  0.00000000E+00  0.00000000E+00  0.00000000E+00
  0.00000000E+00  0.00000000E+00  0.00000000E+00
  0.00000000E+00  0.00000000E+00  0.00000000E+00
  0.00000000E+00  0.00000000E+00  0.00000000E+00
  0.00000000E+00  0.00000000E+00  0.00000000E+00
  0.00000000E+00  0.00000000E+00  0.00000000E+00
  0.00000000E+00  0.00000000E+00  0.00000000E+00
  0.00000000E+00  0.00000000E+00  0.00000000E+00
  0.00000000E+00  0.00000000E+00  0.00000000E+00
  0.00000000E+00  0.00000000E+00  0.00000000E+00
  0.00000000E+00  0.00000000E+00  0.00000000E+00
  0.00000000E+00  0.00000000E+00  0.00000000E+00
  0.00000000E+00  0.00000000E+00  0.00000000E+00
  0.00000000E+00  0.00000000E+00  0.00000000E+00
  0.00000000E+00  0.00000000E+00  0.00000000E+00
  0.00000000E+00  0.00000000E+00  0.00000000E+00
  0.00000000E+00  0.00000000E+00  0.00000000E+00
  0.00000000E+00  0.00000000E+00  0.00000000E+00
