 SC112 file generated by VASPKIT
   1.00000000000000
     4.3799999999999999    0.0000000000000000    0.0000000000000000
    -2.1899999999999999    3.7931912685758400    0.0000000000000000
     0.0000000000000000    0.0000000000000000   40.7100015579178702
   Mn   Te   Bi
     2     8     4
Selective dynamics
Direct
 -0.3333333333333333  0.3333333333333357  0.3333333333333333   F   F   F
  0.3333333333333357 -0.3333333333333333 -0.3333333333333333   F   F   F
 -0.3333333333333333  0.3333333333333357  0.4647222017666124   F   F   F
  0.3333333333333357 -0.3333333333333333 -0.2019444776562764   F   F   F
 -0.3333333333333333  0.3333333333333357  0.2019444776562764   F   F   F
  0.3333333333333357 -0.3333333333333333 -0.4647222017666124   F   F   F
  0.0000000000000000  0.0000000000000000  0.2955168536502839   F   F   F
 -0.3333333333333333  0.3333333333333357 -0.3711498257726120   F   F   F
  0.0000000000000000  0.0000000000000000 -0.2955168536502839   F   F   F
  0.3333333333333357 -0.3333333333333333  0.3711498257726120   F   F   F
  0.0000000000000000  0.0000000000000000  0.4225172858939601   F   F   F
 -0.3333333333333333  0.3333333333333357 -0.2441493935289358   F   F   F
  0.0000000000000000  0.0000000000000000 -0.4225172858939601   F   F   F
  0.3333333333333357 -0.3333333333333333  0.2441493935289358   F   F   F
